mixintcount/benchmarks/random_v2l/5_5_4466.smt2
(set-logic QF_LIA)
(set-info :ran/ran2.smt2)
(set-info :smt-lib-version 2.0)
(declare-fun x1 () Int)
(declare-fun x2 () Int)
(declare-fun x3 () Int)
(declare-fun x4 () Int)
(declare-fun x5 () Int)
(assert (<= (+ (* (- 6) x1) (* 4 x2) (* 8 x3) (* (- 2) x4) (* (- 4) x5) ) (- 2030)))
(assert (<= (+ (* 6 x1) (* 10 x2) (* 9 x3) (* 6 x4) (* (- 4) x5) ) 1006))
(assert (<= (+ (* (- 10) x1) (* (- 6) x2) (* (- 10) x3) (* 4 x4) (* (- 8) x5) ) (- 1878)))
(assert (<= (+ (* 7 x1) (* (- 9) x2) (* 0 x3) (* (- 6) x4) (* (- 10) x5) ) (- 1570)))
(assert (<= (+ (* (- 6) x1) (* 3 x2) (* (- 1) x3) (* (- 7) x4) (* 0 x5) ) 3292))
(assert (<= (+ (* (- 2) x1) (* 3 x2) (* (- 4) x3) (* (- 5) x4) (* (- 10) x5) ) 3935))
(assert (<= (+ (* 6 x1) (* 4 x2) (* 1 x3) (* 4 x4) (* (- 1) x5) ) (- 3325)))
(assert (<= (+ (* (- 4) x1) (* (- 3) x2) (* 7 x3) (* (- 3) x4) (* 10 x5) ) (- 727)))
(assert (<= (+ (* (- 3) x1) (* 6 x2) (* 9 x3) (* 6 x4) (* 8 x5) ) 2692))
(assert (<= (+ (* 7 x1) (* (- 8) x2) (* (- 1) x3) (* (- 7) x4) (* (- 7) x5) ) 791))
(assert (<= (+ (* 1 x1) (* 0 x2) (* 0 x3) (* 0 x4) (* 0 x5) ) 4466))
(assert (<= (+ (* (- 1) x1) (* 0 x2) (* 0 x3) (* 0 x4) (* 0 x5) ) 4466))
(assert (<= (+ (* 0 x1) (* 1 x2) (* 0 x3) (* 0 x4) (* 0 x5) ) 4466))
(assert (<= (+ (* 0 x1) (* (- 1) x2) (* 0 x3) (* 0 x4) (* 0 x5) ) 4466))
(assert (<= (+ (* 0 x1) (* 0 x2) (* 1 x3) (* 0 x4) (* 0 x5) ) 4466))
(assert (<= (+ (* 0 x1) (* 0 x2) (* (- 1) x3) (* 0 x4) (* 0 x5) ) 4466))
(assert (<= (+ (* 0 x1) (* 0 x2) (* 0 x3) (* 1 x4) (* 0 x5) ) 4466))
(assert (<= (+ (* 0 x1) (* 0 x2) (* 0 x3) (* (- 1) x4) (* 0 x5) ) 4466))
(assert (<= (+ (* 0 x1) (* 0 x2) (* 0 x3) (* 0 x4) (* 1 x5) ) 4466))
(assert (<= (+ (* 0 x1) (* 0 x2) (* 0 x3) (* 0 x4) (* (- 1) x5) ) 4466))
