mixintcount/benchmarks/random_v2l/5_5_4466.in
20 7
#	x1	x2	x3	x4	x5;		0 = Real; 1 = Integer
	1	1	1	1	1
1	-6	4	8	-2	-4	-2030
1	6	10	9	6	-4	1006
1	-10	-6	-10	4	-8	-1878
1	7	-9	0	-6	-10	-1570
1	-6	3	-1	-7	0	3292
1	-2	3	-4	-5	-10	3935
1	6	4	1	4	-1	-3325
1	-4	-3	7	-3	10	-727
1	-3	6	9	6	8	2692
1	7	-8	-1	-7	-7	791
1	1	0	0	0	0	4466
1	-1	0	0	0	0	4466
1	0	1	0	0	0	4466
1	0	-1	0	0	0	4466
1	0	0	1	0	0	4466
1	0	0	-1	0	0	4466
1	0	0	0	1	0	4466
1	0	0	0	-1	0	4466
1	0	0	0	0	1	4466
1	0	0	0	0	-1	4466
